modeles/5_29.lp
minimize
obj: 1 x_1_ + 1 x_2_ + 1 x_3_ + 1 x_4_ + 1 x_5_
subject to
c1_1: 1 t_1,1_ - 1 y_1,1_ <= 0
c2_1: 1 t_1,2_ - 1 y_1,1_ - 1 y_1,2_ <= 0
c3_1: 1 t_1,3_ - 1 y_1,2_ - 1 y_1,3_ <= 0
c4_1: 1 t_1,4_ - 1 y_1,3_ - 1 y_1,4_ <= 0
c5_1: 1 t_1,5_ - 1 y_1,4_ - 1 y_1,5_ <= 0
c6_1: 1 t_1,6_ - 1 y_1,5_ - 1 y_1,6_ <= 0
c7_1: 1 t_1,7_ - 1 y_1,6_ - 1 y_1,7_ <= 0
c8_1: 1 t_1,8_ - 1 y_1,7_ - 1 y_1,8_ <= 0
c9_1: 1 t_1,9_ - 1 y_1,8_ - 1 y_1,9_ <= 0
c10_1: 1 t_1,10_ - 1 y_1,9_ - 1 y_1,10_ <= 0
c11_1: 1 t_1,11_ - 1 y_1,10_ - 1 y_1,11_ <= 0
c12_1: 1 t_1,12_ - 1 y_1,11_ - 1 y_1,12_ <= 0
c13_1: 1 t_1,13_ - 1 y_1,12_ - 1 y_1,13_ <= 0
c14_1: 1 t_1,14_ - 1 y_1,13_ - 1 y_1,14_ <= 0
c15_1: 1 t_1,15_ - 1 y_1,14_ - 1 y_1,15_ <= 0
c16: 1 t_1,16_ - 1 y_1,15_ - 1 y_1,16_ <= 0
c17: 1 t_1,17_ - 1 y_1,16_ - 1 y_1,17_ <= 0
c18: 1 t_1,18_ - 1 y_1,17_ - 1 y_1,18_ <= 0
c19: 1 t_1,19_ - 1 y_1,18_ - 1 y_1,19_ <= 0
c20: 1 t_1,20_ - 1 y_1,19_ - 1 y_1,20_ <= 0
c21: 1 t_1,21_ - 1 y_1,20_ - 1 y_1,21_ <= 0
c22: 1 t_1,22_ - 1 y_1,21_ - 1 y_1,22_ <= 0
c23: 1 t_1,23_ - 1 y_1,22_ - 1 y_1,23_ <= 0
c24: 1 t_1,24_ - 1 y_1,23_ - 1 y_1,24_ <= 0
c25: 1 t_1,25_ - 1 y_1,24_ - 1 y_1,25_ <= 0
c26: 1 t_1,26_ - 1 y_1,25_ - 1 y_1,26_ <= 0
c27: 1 t_1,27_ - 1 y_1,26_ - 1 y_1,27_ <= 0
c28: 1 t_1,28_ - 1 y_1,27_ - 1 y_1,28_ <= 0
c29: 1 t_1,29_ - 1 y_1,28_ - 1 y_1,29_ <= 0
c30: 1 t_1,30_ - 1 y_1,29_ <= 0
c31: 1 t_2,1_ - 1 y_2,1_ <= 0
c32: 1 t_2,2_ - 1 y_2,1_ - 1 y_2,2_ <= 0
c33: 1 t_2,3_ - 1 y_2,2_ - 1 y_2,3_ <= 0
c34: 1 t_2,4_ - 1 y_2,3_ - 1 y_2,4_ <= 0
c35: 1 t_2,5_ - 1 y_2,4_ - 1 y_2,5_ <= 0
c36: 1 t_2,6_ - 1 y_2,5_ - 1 y_2,6_ <= 0
c37: 1 t_2,7_ - 1 y_2,6_ - 1 y_2,7_ <= 0
c38: 1 t_2,8_ - 1 y_2,7_ - 1 y_2,8_ <= 0
c39: 1 t_2,9_ - 1 y_2,8_ - 1 y_2,9_ <= 0
c40: 1 t_2,10_ - 1 y_2,9_ - 1 y_2,10_ <= 0
c41: 1 t_2,11_ - 1 y_2,10_ - 1 y_2,11_ <= 0
c42: 1 t_2,12_ - 1 y_2,11_ - 1 y_2,12_ <= 0
c43: 1 t_2,13_ - 1 y_2,12_ - 1 y_2,13_ <= 0
c44: 1 t_2,14_ - 1 y_2,13_ - 1 y_2,14_ <= 0
c45: 1 t_2,15_ - 1 y_2,14_ - 1 y_2,15_ <= 0
c46: 1 t_2,16_ - 1 y_2,15_ - 1 y_2,16_ <= 0
c47: 1 t_2,17_ - 1 y_2,16_ - 1 y_2,17_ <= 0
c48: 1 t_2,18_ - 1 y_2,17_ - 1 y_2,18_ <= 0
c49: 1 t_2,19_ - 1 y_2,18_ - 1 y_2,19_ <= 0
c50: 1 t_2,20_ - 1 y_2,19_ - 1 y_2,20_ <= 0
c51: 1 t_2,21_ - 1 y_2,20_ - 1 y_2,21_ <= 0
c52: 1 t_2,22_ - 1 y_2,21_ - 1 y_2,22_ <= 0
c53: 1 t_2,23_ - 1 y_2,22_ - 1 y_2,23_ <= 0
c54: 1 t_2,24_ - 1 y_2,23_ - 1 y_2,24_ <= 0
c55: 1 t_2,25_ - 1 y_2,24_ - 1 y_2,25_ <= 0
c56: 1 t_2,26_ - 1 y_2,25_ - 1 y_2,26_ <= 0
c57: 1 t_2,27_ - 1 y_2,26_ - 1 y_2,27_ <= 0
c58: 1 t_2,28_ - 1 y_2,27_ - 1 y_2,28_ <= 0
c59: 1 t_2,29_ - 1 y_2,28_ - 1 y_2,29_ <= 0
c60: 1 t_2,30_ - 1 y_2,29_ <= 0
c61: 1 t_3,1_ - 1 y_3,1_ <= 0
c62: 1 t_3,2_ - 1 y_3,1_ - 1 y_3,2_ <= 0
c63: 1 t_3,3_ - 1 y_3,2_ - 1 y_3,3_ <= 0
c64: 1 t_3,4_ - 1 y_3,3_ - 1 y_3,4_ <= 0
c65: 1 t_3,5_ - 1 y_3,4_ - 1 y_3,5_ <= 0
c66: 1 t_3,6_ - 1 y_3,5_ - 1 y_3,6_ <= 0
c67: 1 t_3,7_ - 1 y_3,6_ - 1 y_3,7_ <= 0
c68: 1 t_3,8_ - 1 y_3,7_ - 1 y_3,8_ <= 0
c69: 1 t_3,9_ - 1 y_3,8_ - 1 y_3,9_ <= 0
c70: 1 t_3,10_ - 1 y_3,9_ - 1 y_3,10_ <= 0
c71: 1 t_3,11_ - 1 y_3,10_ - 1 y_3,11_ <= 0
c72: 1 t_3,12_ - 1 y_3,11_ - 1 y_3,12_ <= 0
c73: 1 t_3,13_ - 1 y_3,12_ - 1 y_3,13_ <= 0
c74: 1 t_3,14_ - 1 y_3,13_ - 1 y_3,14_ <= 0
c75: 1 t_3,15_ - 1 y_3,14_ - 1 y_3,15_ <= 0
c76: 1 t_3,16_ - 1 y_3,15_ - 1 y_3,16_ <= 0
c77: 1 t_3,17_ - 1 y_3,16_ - 1 y_3,17_ <= 0
c78: 1 t_3,18_ - 1 y_3,17_ - 1 y_3,18_ <= 0
c79: 1 t_3,19_ - 1 y_3,18_ - 1 y_3,19_ <= 0
c80: 1 t_3,20_ - 1 y_3,19_ - 1 y_3,20_ <= 0
c81: 1 t_3,21_ - 1 y_3,20_ - 1 y_3,21_ <= 0
c82: 1 t_3,22_ - 1 y_3,21_ - 1 y_3,22_ <= 0
c83: 1 t_3,23_ - 1 y_3,22_ - 1 y_3,23_ <= 0
c84: 1 t_3,24_ - 1 y_3,23_ - 1 y_3,24_ <= 0
c85: 1 t_3,25_ - 1 y_3,24_ - 1 y_3,25_ <= 0
c86: 1 t_3,26_ - 1 y_3,25_ - 1 y_3,26_ <= 0
c87: 1 t_3,27_ - 1 y_3,26_ - 1 y_3,27_ <= 0
c88: 1 t_3,28_ - 1 y_3,27_ - 1 y_3,28_ <= 0
c89: 1 t_3,29_ - 1 y_3,28_ - 1 y_3,29_ <= 0
c90: 1 t_3,30_ - 1 y_3,29_ <= 0
c91: 1 t_4,1_ - 1 y_4,1_ <= 0
c92: 1 t_4,2_ - 1 y_4,1_ - 1 y_4,2_ <= 0
c93: 1 t_4,3_ - 1 y_4,2_ - 1 y_4,3_ <= 0
c94: 1 t_4,4_ - 1 y_4,3_ - 1 y_4,4_ <= 0
c95: 1 t_4,5_ - 1 y_4,4_ - 1 y_4,5_ <= 0
c96: 1 t_4,6_ - 1 y_4,5_ - 1 y_4,6_ <= 0
c97: 1 t_4,7_ - 1 y_4,6_ - 1 y_4,7_ <= 0
c98: 1 t_4,8_ - 1 y_4,7_ - 1 y_4,8_ <= 0
c99: 1 t_4,9_ - 1 y_4,8_ - 1 y_4,9_ <= 0
c100: 1 t_4,10_ - 1 y_4,9_ - 1 y_4,10_ <= 0
c101: 1 t_4,11_ - 1 y_4,10_ - 1 y_4,11_ <= 0
c102: 1 t_4,12_ - 1 y_4,11_ - 1 y_4,12_ <= 0
c103: 1 t_4,13_ - 1 y_4,12_ - 1 y_4,13_ <= 0
c104: 1 t_4,14_ - 1 y_4,13_ - 1 y_4,14_ <= 0
c105: 1 t_4,15_ - 1 y_4,14_ - 1 y_4,15_ <= 0
c106: 1 t_4,16_ - 1 y_4,15_ - 1 y_4,16_ <= 0
c107: 1 t_4,17_ - 1 y_4,16_ - 1 y_4,17_ <= 0
c108: 1 t_4,18_ - 1 y_4,17_ - 1 y_4,18_ <= 0
c109: 1 t_4,19_ - 1 y_4,18_ - 1 y_4,19_ <= 0
c110: 1 t_4,20_ - 1 y_4,19_ - 1 y_4,20_ <= 0
c111: 1 t_4,21_ - 1 y_4,20_ - 1 y_4,21_ <= 0
c112: 1 t_4,22_ - 1 y_4,21_ - 1 y_4,22_ <= 0
c113: 1 t_4,23_ - 1 y_4,22_ - 1 y_4,23_ <= 0
c114: 1 t_4,24_ - 1 y_4,23_ - 1 y_4,24_ <= 0
c115: 1 t_4,25_ - 1 y_4,24_ - 1 y_4,25_ <= 0
c116: 1 t_4,26_ - 1 y_4,25_ - 1 y_4,26_ <= 0
c117: 1 t_4,27_ - 1 y_4,26_ - 1 y_4,27_ <= 0
c118: 1 t_4,28_ - 1 y_4,27_ - 1 y_4,28_ <= 0
c119: 1 t_4,29_ - 1 y_4,28_ - 1 y_4,29_ <= 0
c120: 1 t_4,30_ - 1 y_4,29_ <= 0
c121: 1 t_5,1_ - 1 y_5,1_ <= 0
c122: 1 t_5,2_ - 1 y_5,1_ - 1 y_5,2_ <= 0
c123: 1 t_5,3_ - 1 y_5,2_ - 1 y_5,3_ <= 0
c124: 1 t_5,4_ - 1 y_5,3_ - 1 y_5,4_ <= 0
c125: 1 t_5,5_ - 1 y_5,4_ - 1 y_5,5_ <= 0
c126: 1 t_5,6_ - 1 y_5,5_ - 1 y_5,6_ <= 0
c127: 1 t_5,7_ - 1 y_5,6_ - 1 y_5,7_ <= 0
c128: 1 t_5,8_ - 1 y_5,7_ - 1 y_5,8_ <= 0
c129: 1 t_5,9_ - 1 y_5,8_ - 1 y_5,9_ <= 0
c130: 1 t_5,10_ - 1 y_5,9_ - 1 y_5,10_ <= 0
c131: 1 t_5,11_ - 1 y_5,10_ - 1 y_5,11_ <= 0
c132: 1 t_5,12_ - 1 y_5,11_ - 1 y_5,12_ <= 0
c133: 1 t_5,13_ - 1 y_5,12_ - 1 y_5,13_ <= 0
c134: 1 t_5,14_ - 1 y_5,13_ - 1 y_5,14_ <= 0
c135: 1 t_5,15_ - 1 y_5,14_ - 1 y_5,15_ <= 0
c136: 1 t_5,16_ - 1 y_5,15_ - 1 y_5,16_ <= 0
c137: 1 t_5,17_ - 1 y_5,16_ - 1 y_5,17_ <= 0
c138: 1 t_5,18_ - 1 y_5,17_ - 1 y_5,18_ <= 0
c139: 1 t_5,19_ - 1 y_5,18_ - 1 y_5,19_ <= 0
c140: 1 t_5,20_ - 1 y_5,19_ - 1 y_5,20_ <= 0
c141: 1 t_5,21_ - 1 y_5,20_ - 1 y_5,21_ <= 0
c142: 1 t_5,22_ - 1 y_5,21_ - 1 y_5,22_ <= 0
c143: 1 t_5,23_ - 1 y_5,22_ - 1 y_5,23_ <= 0
c144: 1 t_5,24_ - 1 y_5,23_ - 1 y_5,24_ <= 0
c145: 1 t_5,25_ - 1 y_5,24_ - 1 y_5,25_ <= 0
c146: 1 t_5,26_ - 1 y_5,25_ - 1 y_5,26_ <= 0
c147: 1 t_5,27_ - 1 y_5,26_ - 1 y_5,27_ <= 0
c148: 1 t_5,28_ - 1 y_5,27_ - 1 y_5,28_ <= 0
c149: 1 t_5,29_ - 1 y_5,28_ - 1 y_5,29_ <= 0
c150: 1 t_5,30_ - 1 y_5,29_ <= 0
c151: 4 t_1,1_ + 4 t_2,1_ + 4 t_3,1_ + 4 t_4,1_ + 4 t_5,1_ + 3.46730083234245 t_1,2_ + 3.46730083234245 t_2,2_ + 3.46730083234245 t_3,2_ + 3.46730083234245 t_4,2_ + 3.46730083234245 t_5,2_ + 2.9726516052318663 t_1,3_ + 2.9726516052318663 t_2,3_ + 2.9726516052318663 t_3,3_ + 2.9726516052318663 t_4,3_ + 2.9726516052318663 t_5,3_ + 2.5160523186682524 t_1,4_ + 2.5160523186682524 t_2,4_ + 2.5160523186682524 t_3,4_ + 2.5160523186682524 t_4,4_ + 2.5160523186682524 t_5,4_ + 2.0975029726516046 t_1,5_ + 2.0975029726516046 t_2,5_ + 2.0975029726516046 t_3,5_ + 2.0975029726516046 t_4,5_ + 2.0975029726516046 t_5,5_ + 1.7170035671819261 t_1,6_ + 1.7170035671819261 t_2,6_ + 1.7170035671819261 t_3,6_ + 1.7170035671819261 t_4,6_ + 1.7170035671819261 t_5,6_ + 1.3745541022592156 t_1,7_ + 1.3745541022592156 t_2,7_ + 1.3745541022592156 t_3,7_ + 1.3745541022592156 t_4,7_ + 1.3745541022592156 t_5,7_ + 1.0701545778834718 t_1,8_ + 1.0701545778834718 t_2,8_ + 1.0701545778834718 t_3,8_ + 1.0701545778834718 t_4,8_ + 1.0701545778834718 t_5,8_ + 0.8038049940546969 t_1,9_ + 0.8038049940546969 t_2,9_ + 0.8038049940546969 t_3,9_ + 0.8038049940546969 t_4,9_ + 0.8038049940546969 t_5,9_ + 0.5755053507728896 t_1,10_ + 0.5755053507728896 t_2,10_ + 0.5755053507728896 t_3,10_ + 0.5755053507728896 t_4,10_ + 0.5755053507728896 t_5,10_ + 0.38525564803804985 t_1,11_ + 0.38525564803804985 t_2,11_ + 0.38525564803804985 t_3,11_ + 0.38525564803804985 t_4,11_ + 0.38525564803804985 t_5,11_ + 0.23305588585017845 t_1,12_ + 0.23305588585017845 t_2,12_ + 0.23305588585017845 t_3,12_ + 0.23305588585017845 t_4,12_ + 0.23305588585017845 t_5,12_ + 0.11890606420927477 t_1,13_ + 0.11890606420927477 t_2,13_ + 0.11890606420927477 t_3,13_ + 0.11890606420927477 t_4,13_ + 0.11890606420927477 t_5,13_ + 0.04280618311533887 t_1,14_ + 0.04280618311533887 t_2,14_ + 0.04280618311533887 t_3,14_ + 0.04280618311533887 t_4,14_ + 0.04280618311533887 t_5,14_ + 0.00475624256837096 t_1,15_ + 0.00475624256837096 t_2,15_ + 0.00475624256837096 t_3,15_ + 0.00475624256837096 t_4,15_ + 0.00475624256837096 t_5,15_ + 0.004756242568371006 t_1,16_ + 0.004756242568371006 t_2,16_ + 0.004756242568371006 t_3,16_ + 0.004756242568371006 t_4,16_ + 0.004756242568371006 t_5,16_ + 0.04280618311533887 t_1,17_ + 0.04280618311533887 t_2,17_ + 0.04280618311533887 t_3,17_ + 0.04280618311533887 t_4,17_ + 0.04280618311533887 t_5,17_ + 0.11890606420927453 t_1,18_ + 0.11890606420927453 t_2,18_ + 0.11890606420927453 t_3,18_ + 0.11890606420927453 t_4,18_ + 0.11890606420927453 t_5,18_ + 0.23305588585017845 t_1,19_ + 0.23305588585017845 t_2,19_ + 0.23305588585017845 t_3,19_ + 0.23305588585017845 t_4,19_ + 0.23305588585017845 t_5,19_ + 0.38525564803804985 t_1,20_ + 0.38525564803804985 t_2,20_ + 0.38525564803804985 t_3,20_ + 0.38525564803804985 t_4,20_ + 0.38525564803804985 t_5,20_ + 0.5755053507728897 t_1,21_ + 0.5755053507728897 t_2,21_ + 0.5755053507728897 t_3,21_ + 0.5755053507728897 t_4,21_ + 0.5755053507728897 t_5,21_ + 0.8038049940546969 t_1,22_ + 0.8038049940546969 t_2,22_ + 0.8038049940546969 t_3,22_ + 0.8038049940546969 t_4,22_ + 0.8038049940546969 t_5,22_ + 1.0701545778834718 t_1,23_ + 1.0701545778834718 t_2,23_ + 1.0701545778834718 t_3,23_ + 1.0701545778834718 t_4,23_ + 1.0701545778834718 t_5,23_ + 1.3745541022592156 t_1,24_ + 1.3745541022592156 t_2,24_ + 1.3745541022592156 t_3,24_ + 1.3745541022592156 t_4,24_ + 1.3745541022592156 t_5,24_ + 1.7170035671819261 t_1,25_ + 1.7170035671819261 t_2,25_ + 1.7170035671819261 t_3,25_ + 1.7170035671819261 t_4,25_ + 1.7170035671819261 t_5,25_ + 2.0975029726516046 t_1,26_ + 2.0975029726516046 t_2,26_ + 2.0975029726516046 t_3,26_ + 2.0975029726516046 t_4,26_ + 2.0975029726516046 t_5,26_ + 2.5160523186682524 t_1,27_ + 2.5160523186682524 t_2,27_ + 2.5160523186682524 t_3,27_ + 2.5160523186682524 t_4,27_ + 2.5160523186682524 t_5,27_ + 2.9726516052318663 t_1,28_ + 2.9726516052318663 t_2,28_ + 2.9726516052318663 t_3,28_ + 2.9726516052318663 t_4,28_ + 2.9726516052318663 t_5,28_ + 3.46730083234245 t_1,29_ + 3.46730083234245 t_2,29_ + 3.46730083234245 t_3,29_ + 3.46730083234245 t_4,29_ + 3.46730083234245 t_5,29_ + 4 t_1,30_ + 4 t_2,30_ + 4 t_3,30_ + 4 t_4,30_ + 4 t_5,30_ <= 1
c1: 1 y_1,1_ + 1 y_1,2_ + 1 y_1,3_ + 1 y_1,4_ + 1 y_1,5_ + 1 y_1,6_ + 1 y_1,7_ + 1 y_1,8_ + 1 y_1,9_ + 1 y_1,10_ + 1 y_1,11_ + 1 y_1,12_ + 1 y_1,13_ + 1 y_1,14_ + 1 y_1,15_ + 1 y_1,16_ + 1 y_1,17_ + 1 y_1,18_ + 1 y_1,19_ + 1 y_1,20_ + 1 y_1,21_ + 1 y_1,22_ + 1 y_1,23_ + 1 y_1,24_ + 1 y_1,25_ + 1 y_1,26_ + 1 y_1,27_ + 1 y_1,28_ + 1 y_1,29_ = 1
c2: 1 t_1,1_ + 1 t_1,2_ + 1 t_1,3_ + 1 t_1,4_ + 1 t_1,5_ + 1 t_1,6_ + 1 t_1,7_ + 1 t_1,8_ + 1 t_1,9_ + 1 t_1,10_ + 1 t_1,11_ + 1 t_1,12_ + 1 t_1,13_ + 1 t_1,14_ + 1 t_1,15_ + 1 t_1,16_ + 1 t_1,17_ + 1 t_1,18_ + 1 t_1,19_ + 1 t_1,20_ + 1 t_1,21_ + 1 t_1,22_ + 1 t_1,23_ + 1 t_1,24_ + 1 t_1,25_ + 1 t_1,26_ + 1 t_1,27_ + 1 t_1,28_ + 1 t_1,29_ + 1 t_1,30_ = 1
c3: -2 t_1,1_ - 1.8620689655172415 t_1,2_ - 1.7241379310344827 t_1,3_ - 1.5862068965517242 t_1,4_ - 1.4482758620689653 t_1,5_ - 1.3103448275862069 t_1,6_ - 1.1724137931034484 t_1,7_ - 1.0344827586206895 t_1,8_ - 0.896551724137931 t_1,9_ - 0.7586206896551725 t_1,10_ - 0.6206896551724137 t_1,11_ - 0.48275862068965525 t_1,12_ - 0.3448275862068967 t_1,13_ - 0.2068965517241379 t_1,14_ - 0.06896551724137912 t_1,15_ + 0.06896551724137945 t_1,16_ + 0.2068965517241379 t_1,17_ + 0.34482758620689635 t_1,18_ + 0.48275862068965525 t_1,19_ + 0.6206896551724137 t_1,20_ + 0.7586206896551726 t_1,21_ + 0.896551724137931 t_1,22_ + 1.0344827586206895 t_1,23_ + 1.1724137931034484 t_1,24_ + 1.3103448275862069 t_1,25_ + 1.4482758620689653 t_1,26_ + 1.5862068965517242 t_1,27_ + 1.7241379310344827 t_1,28_ + 1.8620689655172415 t_1,29_ + 2 t_1,30_ - 1 x_1_ = 0
c4: 1 y_2,1_ + 1 y_2,2_ + 1 y_2,3_ + 1 y_2,4_ + 1 y_2,5_ + 1 y_2,6_ + 1 y_2,7_ + 1 y_2,8_ + 1 y_2,9_ + 1 y_2,10_ + 1 y_2,11_ + 1 y_2,12_ + 1 y_2,13_ + 1 y_2,14_ + 1 y_2,15_ + 1 y_2,16_ + 1 y_2,17_ + 1 y_2,18_ + 1 y_2,19_ + 1 y_2,20_ + 1 y_2,21_ + 1 y_2,22_ + 1 y_2,23_ + 1 y_2,24_ + 1 y_2,25_ + 1 y_2,26_ + 1 y_2,27_ + 1 y_2,28_ + 1 y_2,29_ = 1
c5: 1 t_2,1_ + 1 t_2,2_ + 1 t_2,3_ + 1 t_2,4_ + 1 t_2,5_ + 1 t_2,6_ + 1 t_2,7_ + 1 t_2,8_ + 1 t_2,9_ + 1 t_2,10_ + 1 t_2,11_ + 1 t_2,12_ + 1 t_2,13_ + 1 t_2,14_ + 1 t_2,15_ + 1 t_2,16_ + 1 t_2,17_ + 1 t_2,18_ + 1 t_2,19_ + 1 t_2,20_ + 1 t_2,21_ + 1 t_2,22_ + 1 t_2,23_ + 1 t_2,24_ + 1 t_2,25_ + 1 t_2,26_ + 1 t_2,27_ + 1 t_2,28_ + 1 t_2,29_ + 1 t_2,30_ = 1
c6: -2 t_2,1_ - 1.8620689655172415 t_2,2_ - 1.7241379310344827 t_2,3_ - 1.5862068965517242 t_2,4_ - 1.4482758620689653 t_2,5_ - 1.3103448275862069 t_2,6_ - 1.1724137931034484 t_2,7_ - 1.0344827586206895 t_2,8_ - 0.896551724137931 t_2,9_ - 0.7586206896551725 t_2,10_ - 0.6206896551724137 t_2,11_ - 0.48275862068965525 t_2,12_ - 0.3448275862068967 t_2,13_ - 0.2068965517241379 t_2,14_ - 0.06896551724137912 t_2,15_ + 0.06896551724137945 t_2,16_ + 0.2068965517241379 t_2,17_ + 0.34482758620689635 t_2,18_ + 0.48275862068965525 t_2,19_ + 0.6206896551724137 t_2,20_ + 0.7586206896551726 t_2,21_ + 0.896551724137931 t_2,22_ + 1.0344827586206895 t_2,23_ + 1.1724137931034484 t_2,24_ + 1.3103448275862069 t_2,25_ + 1.4482758620689653 t_2,26_ + 1.5862068965517242 t_2,27_ + 1.7241379310344827 t_2,28_ + 1.8620689655172415 t_2,29_ + 2 t_2,30_ - 1 x_2_ = 0
c7: 1 y_3,1_ + 1 y_3,2_ + 1 y_3,3_ + 1 y_3,4_ + 1 y_3,5_ + 1 y_3,6_ + 1 y_3,7_ + 1 y_3,8_ + 1 y_3,9_ + 1 y_3,10_ + 1 y_3,11_ + 1 y_3,12_ + 1 y_3,13_ + 1 y_3,14_ + 1 y_3,15_ + 1 y_3,16_ + 1 y_3,17_ + 1 y_3,18_ + 1 y_3,19_ + 1 y_3,20_ + 1 y_3,21_ + 1 y_3,22_ + 1 y_3,23_ + 1 y_3,24_ + 1 y_3,25_ + 1 y_3,26_ + 1 y_3,27_ + 1 y_3,28_ + 1 y_3,29_ = 1
c8: 1 t_3,1_ + 1 t_3,2_ + 1 t_3,3_ + 1 t_3,4_ + 1 t_3,5_ + 1 t_3,6_ + 1 t_3,7_ + 1 t_3,8_ + 1 t_3,9_ + 1 t_3,10_ + 1 t_3,11_ + 1 t_3,12_ + 1 t_3,13_ + 1 t_3,14_ + 1 t_3,15_ + 1 t_3,16_ + 1 t_3,17_ + 1 t_3,18_ + 1 t_3,19_ + 1 t_3,20_ + 1 t_3,21_ + 1 t_3,22_ + 1 t_3,23_ + 1 t_3,24_ + 1 t_3,25_ + 1 t_3,26_ + 1 t_3,27_ + 1 t_3,28_ + 1 t_3,29_ + 1 t_3,30_ = 1
c9: -2 t_3,1_ - 1.8620689655172415 t_3,2_ - 1.7241379310344827 t_3,3_ - 1.5862068965517242 t_3,4_ - 1.4482758620689653 t_3,5_ - 1.3103448275862069 t_3,6_ - 1.1724137931034484 t_3,7_ - 1.0344827586206895 t_3,8_ - 0.896551724137931 t_3,9_ - 0.7586206896551725 t_3,10_ - 0.6206896551724137 t_3,11_ - 0.48275862068965525 t_3,12_ - 0.3448275862068967 t_3,13_ - 0.2068965517241379 t_3,14_ - 0.06896551724137912 t_3,15_ + 0.06896551724137945 t_3,16_ + 0.2068965517241379 t_3,17_ + 0.34482758620689635 t_3,18_ + 0.48275862068965525 t_3,19_ + 0.6206896551724137 t_3,20_ + 0.7586206896551726 t_3,21_ + 0.896551724137931 t_3,22_ + 1.0344827586206895 t_3,23_ + 1.1724137931034484 t_3,24_ + 1.3103448275862069 t_3,25_ + 1.4482758620689653 t_3,26_ + 1.5862068965517242 t_3,27_ + 1.7241379310344827 t_3,28_ + 1.8620689655172415 t_3,29_ + 2 t_3,30_ - 1 x_3_ = 0
c10: 1 y_4,1_ + 1 y_4,2_ + 1 y_4,3_ + 1 y_4,4_ + 1 y_4,5_ + 1 y_4,6_ + 1 y_4,7_ + 1 y_4,8_ + 1 y_4,9_ + 1 y_4,10_ + 1 y_4,11_ + 1 y_4,12_ + 1 y_4,13_ + 1 y_4,14_ + 1 y_4,15_ + 1 y_4,16_ + 1 y_4,17_ + 1 y_4,18_ + 1 y_4,19_ + 1 y_4,20_ + 1 y_4,21_ + 1 y_4,22_ + 1 y_4,23_ + 1 y_4,24_ + 1 y_4,25_ + 1 y_4,26_ + 1 y_4,27_ + 1 y_4,28_ + 1 y_4,29_ = 1
c11: 1 t_4,1_ + 1 t_4,2_ + 1 t_4,3_ + 1 t_4,4_ + 1 t_4,5_ + 1 t_4,6_ + 1 t_4,7_ + 1 t_4,8_ + 1 t_4,9_ + 1 t_4,10_ + 1 t_4,11_ + 1 t_4,12_ + 1 t_4,13_ + 1 t_4,14_ + 1 t_4,15_ + 1 t_4,16_ + 1 t_4,17_ + 1 t_4,18_ + 1 t_4,19_ + 1 t_4,20_ + 1 t_4,21_ + 1 t_4,22_ + 1 t_4,23_ + 1 t_4,24_ + 1 t_4,25_ + 1 t_4,26_ + 1 t_4,27_ + 1 t_4,28_ + 1 t_4,29_ + 1 t_4,30_ = 1
c12: -2 t_4,1_ - 1.8620689655172415 t_4,2_ - 1.7241379310344827 t_4,3_ - 1.5862068965517242 t_4,4_ - 1.4482758620689653 t_4,5_ - 1.3103448275862069 t_4,6_ - 1.1724137931034484 t_4,7_ - 1.0344827586206895 t_4,8_ - 0.896551724137931 t_4,9_ - 0.7586206896551725 t_4,10_ - 0.6206896551724137 t_4,11_ - 0.48275862068965525 t_4,12_ - 0.3448275862068967 t_4,13_ - 0.2068965517241379 t_4,14_ - 0.06896551724137912 t_4,15_ + 0.06896551724137945 t_4,16_ + 0.2068965517241379 t_4,17_ + 0.34482758620689635 t_4,18_ + 0.48275862068965525 t_4,19_ + 0.6206896551724137 t_4,20_ + 0.7586206896551726 t_4,21_ + 0.896551724137931 t_4,22_ + 1.0344827586206895 t_4,23_ + 1.1724137931034484 t_4,24_ + 1.3103448275862069 t_4,25_ + 1.4482758620689653 t_4,26_ + 1.5862068965517242 t_4,27_ + 1.7241379310344827 t_4,28_ + 1.8620689655172415 t_4,29_ + 2 t_4,30_ - 1 x_4_ = 0
c13: 1 y_5,1_ + 1 y_5,2_ + 1 y_5,3_ + 1 y_5,4_ + 1 y_5,5_ + 1 y_5,6_ + 1 y_5,7_ + 1 y_5,8_ + 1 y_5,9_ + 1 y_5,10_ + 1 y_5,11_ + 1 y_5,12_ + 1 y_5,13_ + 1 y_5,14_ + 1 y_5,15_ + 1 y_5,16_ + 1 y_5,17_ + 1 y_5,18_ + 1 y_5,19_ + 1 y_5,20_ + 1 y_5,21_ + 1 y_5,22_ + 1 y_5,23_ + 1 y_5,24_ + 1 y_5,25_ + 1 y_5,26_ + 1 y_5,27_ + 1 y_5,28_ + 1 y_5,29_ = 1
c14: 1 t_5,1_ + 1 t_5,2_ + 1 t_5,3_ + 1 t_5,4_ + 1 t_5,5_ + 1 t_5,6_ + 1 t_5,7_ + 1 t_5,8_ + 1 t_5,9_ + 1 t_5,10_ + 1 t_5,11_ + 1 t_5,12_ + 1 t_5,13_ + 1 t_5,14_ + 1 t_5,15_ + 1 t_5,16_ + 1 t_5,17_ + 1 t_5,18_ + 1 t_5,19_ + 1 t_5,20_ + 1 t_5,21_ + 1 t_5,22_ + 1 t_5,23_ + 1 t_5,24_ + 1 t_5,25_ + 1 t_5,26_ + 1 t_5,27_ + 1 t_5,28_ + 1 t_5,29_ + 1 t_5,30_ = 1
c15: -2 t_5,1_ - 1.8620689655172415 t_5,2_ - 1.7241379310344827 t_5,3_ - 1.5862068965517242 t_5,4_ - 1.4482758620689653 t_5,5_ - 1.3103448275862069 t_5,6_ - 1.1724137931034484 t_5,7_ - 1.0344827586206895 t_5,8_ - 0.896551724137931 t_5,9_ - 0.7586206896551725 t_5,10_ - 0.6206896551724137 t_5,11_ - 0.48275862068965525 t_5,12_ - 0.3448275862068967 t_5,13_ - 0.2068965517241379 t_5,14_ - 0.06896551724137912 t_5,15_ + 0.06896551724137945 t_5,16_ + 0.2068965517241379 t_5,17_ + 0.34482758620689635 t_5,18_ + 0.48275862068965525 t_5,19_ + 0.6206896551724137 t_5,20_ + 0.7586206896551726 t_5,21_ + 0.896551724137931 t_5,22_ + 1.0344827586206895 t_5,23_ + 1.1724137931034484 t_5,24_ + 1.3103448275862069 t_5,25_ + 1.4482758620689653 t_5,26_ + 1.5862068965517242 t_5,27_ + 1.7241379310344827 t_5,28_ + 1.8620689655172415 t_5,29_ + 2 t_5,30_ - 1 x_5_ = 0
Bounds
x_1_ <= 2
x_2_ <= 2
x_3_ <= 2
x_4_ <= 2
x_5_ <= 2
t_1,1_ >= 0
t_2,1_ >= 0
t_3,1_ >= 0
t_4,1_ >= 0
t_5,1_ >= 0
t_1,2_ >= 0
t_2,2_ >= 0
t_3,2_ >= 0
t_4,2_ >= 0
t_5,2_ >= 0
t_1,3_ >= 0
t_2,3_ >= 0
t_3,3_ >= 0
t_4,3_ >= 0
t_5,3_ >= 0
t_1,4_ >= 0
t_2,4_ >= 0
t_3,4_ >= 0
t_4,4_ >= 0
t_5,4_ >= 0
t_1,5_ >= 0
t_2,5_ >= 0
t_3,5_ >= 0
t_4,5_ >= 0
t_5,5_ >= 0
t_1,6_ >= 0
t_2,6_ >= 0
t_3,6_ >= 0
t_4,6_ >= 0
t_5,6_ >= 0
t_1,7_ >= 0
t_2,7_ >= 0
t_3,7_ >= 0
t_4,7_ >= 0
t_5,7_ >= 0
t_1,8_ >= 0
t_2,8_ >= 0
t_3,8_ >= 0
t_4,8_ >= 0
t_5,8_ >= 0
t_1,9_ >= 0
t_2,9_ >= 0
t_3,9_ >= 0
t_4,9_ >= 0
t_5,9_ >= 0
t_1,10_ >= 0
t_2,10_ >= 0
t_3,10_ >= 0
t_4,10_ >= 0
t_5,10_ >= 0
t_1,11_ >= 0
t_2,11_ >= 0
t_3,11_ >= 0
t_4,11_ >= 0
t_5,11_ >= 0
t_1,12_ >= 0
t_2,12_ >= 0
t_3,12_ >= 0
t_4,12_ >= 0
t_5,12_ >= 0
t_1,13_ >= 0
t_2,13_ >= 0
t_3,13_ >= 0
t_4,13_ >= 0
t_5,13_ >= 0
t_1,14_ >= 0
t_2,14_ >= 0
t_3,14_ >= 0
t_4,14_ >= 0
t_5,14_ >= 0
t_1,15_ >= 0
t_2,15_ >= 0
t_3,15_ >= 0
t_4,15_ >= 0
t_5,15_ >= 0
t_1,16_ >= 0
t_2,16_ >= 0
t_3,16_ >= 0
t_4,16_ >= 0
t_5,16_ >= 0
t_1,17_ >= 0
t_2,17_ >= 0
t_3,17_ >= 0
t_4,17_ >= 0
t_5,17_ >= 0
t_1,18_ >= 0
t_2,18_ >= 0
t_3,18_ >= 0
t_4,18_ >= 0
t_5,18_ >= 0
t_1,19_ >= 0
t_2,19_ >= 0
t_3,19_ >= 0
t_4,19_ >= 0
t_5,19_ >= 0
t_1,20_ >= 0
t_2,20_ >= 0
t_3,20_ >= 0
t_4,20_ >= 0
t_5,20_ >= 0
t_1,21_ >= 0
t_2,21_ >= 0
t_3,21_ >= 0
t_4,21_ >= 0
t_5,21_ >= 0
t_1,22_ >= 0
t_2,22_ >= 0
t_3,22_ >= 0
t_4,22_ >= 0
t_5,22_ >= 0
t_1,23_ >= 0
t_2,23_ >= 0
t_3,23_ >= 0
t_4,23_ >= 0
t_5,23_ >= 0
t_1,24_ >= 0
t_2,24_ >= 0
t_3,24_ >= 0
t_4,24_ >= 0
t_5,24_ >= 0
t_1,25_ >= 0
t_2,25_ >= 0
t_3,25_ >= 0
t_4,25_ >= 0
t_5,25_ >= 0
t_1,26_ >= 0
t_2,26_ >= 0
t_3,26_ >= 0
t_4,26_ >= 0
t_5,26_ >= 0
t_1,27_ >= 0
t_2,27_ >= 0
t_3,27_ >= 0
t_4,27_ >= 0
t_5,27_ >= 0
t_1,28_ >= 0
t_2,28_ >= 0
t_3,28_ >= 0
t_4,28_ >= 0
t_5,28_ >= 0
t_1,29_ >= 0
t_2,29_ >= 0
t_3,29_ >= 0
t_4,29_ >= 0
t_5,29_ >= 0
t_1,30_ >= 0
t_2,30_ >= 0
t_3,30_ >= 0
t_4,30_ >= 0
t_5,30_ >= 0
x_1_ >= -2
x_2_ >= -2
x_3_ >= -2
x_4_ >= -2
x_5_ >= -2
Binary
y_1,1_
y_2,1_
y_3,1_
y_4,1_
y_5,1_
y_1,2_
y_2,2_
y_3,2_
y_4,2_
y_5,2_
y_1,3_
y_2,3_
y_3,3_
y_4,3_
y_5,3_
y_1,4_
y_2,4_
y_3,4_
y_4,4_
y_5,4_
y_1,5_
y_2,5_
y_3,5_
y_4,5_
y_5,5_
y_1,6_
y_2,6_
y_3,6_
y_4,6_
y_5,6_
y_1,7_
y_2,7_
y_3,7_
y_4,7_
y_5,7_
y_1,8_
y_2,8_
y_3,8_
y_4,8_
y_5,8_
y_1,9_
y_2,9_
y_3,9_
y_4,9_
y_5,9_
y_1,10_
y_2,10_
y_3,10_
y_4,10_
y_5,10_
y_1,11_
y_2,11_
y_3,11_
y_4,11_
y_5,11_
y_1,12_
y_2,12_
y_3,12_
y_4,12_
y_5,12_
y_1,13_
y_2,13_
y_3,13_
y_4,13_
y_5,13_
y_1,14_
y_2,14_
y_3,14_
y_4,14_
y_5,14_
y_1,15_
y_2,15_
y_3,15_
y_4,15_
y_5,15_
y_1,16_
y_2,16_
y_3,16_
y_4,16_
y_5,16_
y_1,17_
y_2,17_
y_3,17_
y_4,17_
y_5,17_
y_1,18_
y_2,18_
y_3,18_
y_4,18_
y_5,18_
y_1,19_
y_2,19_
y_3,19_
y_4,19_
y_5,19_
y_1,20_
y_2,20_
y_3,20_
y_4,20_
y_5,20_
y_1,21_
y_2,21_
y_3,21_
y_4,21_
y_5,21_
y_1,22_
y_2,22_
y_3,22_
y_4,22_
y_5,22_
y_1,23_
y_2,23_
y_3,23_
y_4,23_
y_5,23_
y_1,24_
y_2,24_
y_3,24_
y_4,24_
y_5,24_
y_1,25_
y_2,25_
y_3,25_
y_4,25_
y_5,25_
y_1,26_
y_2,26_
y_3,26_
y_4,26_
y_5,26_
y_1,27_
y_2,27_
y_3,27_
y_4,27_
y_5,27_
y_1,28_
y_2,28_
y_3,28_
y_4,28_
y_5,28_
y_1,29_
y_2,29_
y_3,29_
y_4,29_
y_5,29_
End
