res_glpk/log/5_29.log
GLPSOL--GLPK LP/MIP Solver 5.0
Parameter(s) specified in the command line:
 --lp ../modeles/5_29.lp --log 5_29.log
Reading problem data from '../modeles/5_29.lp'...
166 rows, 300 columns, 1040 non-zeros
145 integer variables, all of which are binary
477 lines were read
GLPK Integer Optimizer 5.0
166 rows, 300 columns, 1040 non-zeros
145 integer variables, all of which are binary
Preprocessing...
150 constraint coefficient(s) were reduced
166 rows, 295 columns, 1035 non-zeros
145 integer variables, all of which are binary
Scaling...
 A: min|aij| =  4.756e-03  max|aij| =  4.000e+00  ratio =  8.410e+02
GM: min|aij| =  1.857e-01  max|aij| =  5.385e+00  ratio =  2.900e+01
EQ: min|aij| =  3.448e-02  max|aij| =  1.000e+00  ratio =  2.900e+01
2N: min|aij| =  3.125e-02  max|aij| =  1.590e+00  ratio =  5.087e+01
Constructing initial basis...
Size of triangular part is 166
Solving LP relaxation...
GLPK Simplex Optimizer 5.0
166 rows, 295 columns, 1035 non-zeros
      0: obj =   1.000000000e+01 inf =   2.450e+01 (11)
     34: obj =   4.886904762e-01 inf =   0.000e+00 (0)
*   102: obj =  -2.214080460e+00 inf =   1.250e-16 (0)
OPTIMAL LP SOLUTION FOUND
Integer optimization begins...
Long-step dual simplex will be used
+   102: mip =     not found yet >=              -inf        (1; 0)
+   104: >>>>>  -2.214080460e+00 >=  -2.214080460e+00 < 0.1% (3; 0)
+   104: mip =  -2.214080460e+00 >=     tree is empty   0.0% (0; 5)
INTEGER OPTIMAL SOLUTION FOUND
Time used:   0.0 secs
Memory used: 0.5 Mb (496553 bytes)
